c is-unsat
p cnf 7 54
-2 7 1 0
-5 6 7 0
-6 -1 -7 0
-5 2 -4 0
-4 -5 -3 0
-4 -6 -7 0
-1 -3 -6 0
6 2 -5 0
-4 -1 -5 0
-6 1 3 0
1 7 2 0
4 7 1 0
-6 -2 -3 0
-5 -4 -3 0
-7 4 6 0
-1 -6 -4 0
-1 3 -6 0
-2 -4 -6 0
-1 2 -4 0
7 -2 -3 0
1 6 -7 0
2 -6 5 0
-3 7 -6 0
6 5 2 0
4 3 -1 0
-1 -2 7 0
2 -6 -5 0
-6 -3 1 0
-1 -5 -7 0
1 -3 2 0
-3 -7 -1 0
3 -1 -4 0
-3 -6 2 0
-7 -4 2 0
3 -2 5 0
-7 6 -1 0
-3 -4 -1 0
-5 -4 6 0
-2 7 -3 0
-1 -3 -2 0
2 -7 -4 0
-1 -5 4 0
-3 -5 1 0
5 -6 7 0
6 -5 -1 0
-7 -5 -3 0
-6 -7 -1 0
-5 2 -7 0
3 6 5 0
-2 -5 -7 0
-5 -7 -4 0
7 -5 -6 0
-3 -4 2 0
-7 -5 -1 0
